(set-logic ALL)
(declare-fun var0 () String)
(assert (str.in_re var0 (re.++ (re.+ (re.union (str.to_re "00") (str.to_re "1"))) (re.++ (re.* (re.union (str.to_re "2") (str.to_re "333"))) (re.++ (re.+ (re.union (str.to_re "444") (str.to_re "555"))) (re.++ (re.union (re.* (str.to_re "666")) (re.union (str.to_re "7") (str.to_re "8"))) (re.++ (re.union (re.* (str.to_re "9")) (re.+ (str.to_re "aaa"))) (re.++ (re.* (re.+ (str.to_re "bb"))) (re.++ (re.* (re.* (str.to_re "c"))) (re.++ (re.+ (re.+ (str.to_re "d"))) (re.++ (re.+ (re.union (str.to_re "eee") (str.to_re "fff"))) (re.++ (re.* (re.* (str.to_re "gg"))) (re.++ (re.+ (re.+ (str.to_re "h"))) (re.++ (re.* (re.union (str.to_re "iii") (str.to_re "jjj"))) (re.++ (re.* (re.union (str.to_re "kk") (str.to_re "lll"))) (re.++ (re.union (re.+ (str.to_re "m")) (re.union (str.to_re "n") (str.to_re "o"))) (re.++ (re.union (re.* (str.to_re "ppp")) (re.* (str.to_re "qqq"))) (re.++ (re.* (re.+ (str.to_re "r"))) (re.++ (re.+ (re.* (str.to_re "ss"))) (re.++ (re.* (re.+ (str.to_re "ttt"))) (re.++ (re.+ (re.* (str.to_re "uu"))) (re.++ (re.+ (re.+ (str.to_re "vvv"))) (re.++ (re.union (re.* (str.to_re "ww")) (re.+ (str.to_re "xxx"))) (re.++ (re.+ (re.+ (str.to_re "yy"))) (re.++ (re.* (re.union (str.to_re "zz") (str.to_re "AAA"))) (re.++ (re.union (re.* (str.to_re "BBB")) (re.+ (str.to_re "CCC"))) (re.++ (re.+ (re.+ (str.to_re "DD"))) (re.++ (re.+ (re.union (str.to_re "EE") (str.to_re "FFF"))) (re.++ (re.* (re.* (str.to_re "GGG"))) (re.++ (re.union (re.* (str.to_re "H")) (re.union (str.to_re "I") (str.to_re "JJJ"))) (re.++ (re.union (re.+ (str.to_re "KK")) (re.* (str.to_re "LL"))) (re.++ (re.+ (re.* (str.to_re "MMM"))) (re.union (re.+ (str.to_re "NN")) (re.+ (str.to_re "O")))))))))))))))))))))))))))))))))))
(check-sat)